p edge 64 512
e 1 25
e 1 7
e 1 47
e 1 33
e 1 54
e 1 44
e 1 56
e 1 4
e 1 16
e 1 19
e 1 63
e 1 52
e 2 61
e 2 34
e 2 48
e 2 53
e 2 4
e 2 14
e 2 63
e 2 19
e 2 8
e 2 12
e 2 5
e 2 58
e 2 18
e 3 6
e 3 13
e 3 16
e 3 28
e 3 29
e 3 64
e 3 41
e 3 38
e 3 40
e 3 27
e 4 17
e 4 14
e 4 18
e 4 7
e 4 40
e 4 9
e 4 46
e 4 12
e 4 55
e 4 35
e 4 8
e 4 56
e 4 28
e 4 37
e 5 25
e 5 31
e 5 51
e 5 9
e 5 37
e 5 44
e 5 47
e 5 54
e 5 23
e 5 40
e 5 50
e 5 19
e 5 12
e 5 56
e 5 60
e 6 12
e 6 54
e 6 33
e 6 49
e 6 51
e 6 20
e 6 15
e 6 11
e 6 37
e 6 14
e 6 17
e 6 45
e 6 58
e 6 29
e 6 10
e 7 25
e 7 17
e 7 22
e 7 23
e 7 50
e 7 46
e 7 18
e 7 37
e 7 16
e 7 19
e 7 33
e 7 45
e 7 39
e 7 24
e 8 56
e 8 48
e 8 47
e 8 50
e 8 14
e 8 55
e 8 51
e 8 35
e 8 10
e 8 29
e 8 46
e 8 32
e 8 45
e 8 25
e 9 41
e 9 17
e 9 45
e 9 34
e 9 33
e 9 32
e 9 54
e 9 43
e 9 30
e 9 20
e 9 49
e 9 61
e 9 64
e 10 33
e 10 24
e 10 37
e 10 49
e 10 44
e 10 60
e 10 46
e 10 17
e 10 40
e 10 14
e 10 43
e 10 54
e 10 55
e 11 28
e 11 63
e 11 29
e 11 42
e 11 47
e 11 41
e 11 60
e 11 19
e 11 34
e 11 14
e 11 37
e 11 30
e 11 61
e 12 28
e 12 18
e 12 25
e 12 41
e 12 37
e 12 16
e 12 32
e 12 35
e 12 48
e 12 55
e 12 52
e 13 47
e 13 60
e 13 54
e 13 31
e 13 41
e 13 32
e 13 43
e 13 36
e 13 26
e 13 34
e 13 17
e 13 63
e 13 51
e 13 38
e 13 28
e 14 52
e 14 49
e 14 50
e 14 63
e 14 28
e 14 16
e 14 61
e 14 51
e 14 27
e 14 44
e 14 62
e 14 37
e 14 17
e 14 43
e 15 18
e 15 16
e 15 39
e 15 52
e 15 55
e 15 45
e 15 48
e 15 32
e 15 50
e 15 19
e 15 28
e 15 35
e 15 30
e 15 62
e 15 43
e 16 23
e 16 60
e 16 53
e 16 21
e 16 48
e 16 35
e 16 61
e 16 54
e 16 20
e 16 51
e 16 62
e 16 50
e 16 19
e 16 57
e 17 21
e 17 55
e 17 46
e 17 19
e 17 47
e 17 61
e 17 53
e 17 63
e 17 62
e 17 45
e 17 28
e 17 24
e 17 36
e 17 18
e 17 22
e 17 48
e 17 39
e 17 25
e 17 42
e 17 33
e 18 57
e 18 19
e 18 59
e 18 42
e 18 27
e 18 32
e 18 26
e 19 40
e 19 49
e 19 21
e 19 28
e 19 53
e 19 61
e 19 24
e 19 29
e 19 33
e 19 41
e 19 46
e 19 27
e 20 53
e 20 62
e 20 58
e 20 22
e 20 41
e 20 51
e 20 57
e 21 60
e 21 32
e 21 35
e 21 42
e 21 55
e 21 44
e 21 27
e 21 24
e 21 59
e 21 61
e 21 22
e 22 62
e 22 59
e 22 60
e 22 49
e 22 40
e 22 27
e 22 42
e 23 32
e 23 59
e 23 41
e 23 26
e 23 50
e 23 63
e 23 57
e 23 46
e 23 62
e 24 45
e 24 57
e 24 46
e 24 55
e 24 50
e 24 60
e 24 59
e 24 64
e 24 26
e 24 44
e 24 54
e 24 32
e 24 39
e 24 35
e 24 41
e 25 37
e 25 59
e 25 42
e 25 36
e 25 40
e 25 53
e 25 27
e 25 62
e 25 45
e 25 55
e 26 37
e 26 35
e 26 47
e 26 44
e 26 46
e 26 56
e 26 50
e 26 39
e 26 63
e 26 38
e 26 43
e 26 30
e 27 46
e 27 52
e 27 54
e 27 45
e 27 59
e 27 32
e 27 31
e 27 64
e 27 39
e 27 61
e 28 32
e 28 49
e 28 48
e 28 42
e 28 44
e 28 39
e 29 36
e 29 37
e 29 30
e 29 52
e 29 35
e 29 55
e 29 42
e 30 36
e 30 53
e 30 47
e 30 50
e 30 35
e 31 61
e 31 56
e 31 39
e 31 35
e 31 42
e 31 58
e 31 63
e 31 54
e 31 46
e 31 32
e 31 37
e 31 49
e 31 48
e 32 64
e 32 41
e 32 36
e 32 63
e 32 62
e 33 51
e 33 56
e 33 39
e 33 44
e 33 53
e 33 57
e 33 45
e 33 49
e 33 58
e 33 52
e 33 41
e 34 62
e 34 46
e 34 41
e 34 45
e 34 51
e 34 36
e 34 59
e 34 47
e 35 47
e 35 38
e 35 61
e 35 49
e 35 42
e 35 44
e 35 57
e 35 36
e 36 42
e 36 57
e 36 47
e 36 62
e 36 52
e 37 48
e 37 42
e 37 62
e 37 39
e 37 53
e 37 43
e 38 63
e 38 49
e 38 57
e 38 47
e 38 64
e 38 40
e 38 45
e 39 58
e 39 52
e 39 55
e 39 50
e 39 63
e 39 40
e 40 51
e 40 47
e 40 56
e 40 48
e 40 60
e 40 43
e 40 45
e 40 55
e 40 64
e 40 63
e 41 55
e 41 49
e 41 58
e 41 54
e 41 59
e 41 61
e 42 57
e 42 52
e 42 46
e 42 51
e 42 61
e 43 45
e 43 62
e 43 47
e 44 64
e 44 49
e 44 47
e 44 58
e 44 45
e 44 54
e 45 61
e 45 46
e 45 60
e 45 49
e 45 59
e 45 48
e 45 54
e 45 64
e 45 55
e 46 52
e 46 53
e 47 64
e 47 50
e 47 53
e 47 52
e 47 51
e 47 49
e 48 64
e 48 61
e 49 61
e 49 56
e 49 55
e 49 52
e 49 54
e 49 53
e 50 58
e 50 54
e 50 59
e 50 64
e 50 52
e 51 60
e 51 53
e 51 55
e 52 63
e 52 55
e 52 54
e 53 58
e 53 63
e 53 55
e 53 54
e 53 64
e 53 62
e 53 61
e 54 57
e 54 62
e 54 56
e 54 61
e 55 59
e 55 57
e 55 61
e 56 64
e 56 57
e 57 61
e 57 64
e 57 59
e 59 61
e 60 64
e 60 63
e 61 63
e 63 64
